
(set-logic ALL) 

(declare-datatype MyList ((Nil) (Cons (head Real) (tail MyList)) )) 
(declare-fun l0 () MyList) 
(declare-fun l1 () MyList) 
(declare-fun l2 () MyList) 
(declare-fun l3 () MyList) 
(declare-fun i0 () Real) 
(declare-fun i1 () Real) 
(assert (is-Nil Nil) )
(assert (is-Nil Nil) )
(assert (is-Cons Nil) )
(assert (is-Cons l1) )
(assert (= l1 Nil) )
(assert (or (= l2 Nil) (= l1 l0)) )
(assert (or (= l2 l2) (= l3 l1) (is-Nil l0)) )
(assert (is-Nil Nil) )
(check-sat)
